% Auto-generated by scripts/generate_dzn.py
% problem_type   = regex
% instance       = regex_79
% source_json    = instances_json/2_high_blowup/regex_79.json
% blowup         = 31.192307692307693
% representation = NFA

mode = 1;

var_count = 19;
n_constraints = 2;
Q = 15;
S = 3;
q0 = [1, 1];
F = [{15}, {11}];
weights = [1, 4, 6, 5, 3, 8, 4, 9, 1, 8, 1, 2, 5, 4, 9, 4, 6, 5, 3];
d_dfa = array3d(1..2, 1..15, 1..3, [
  % k = 1
    0, 0, 0,
    0, 0, 0,
    0, 0, 0,
    0, 0, 0,
    0, 0, 0,
    0, 0, 0,
    0, 0, 0,
    0, 0, 0,
    0, 0, 0,
    0, 0, 0,
    0, 0, 0,
    0, 0, 0,
    0, 0, 0,
    0, 0, 0,
    0, 0, 0,

  % k = 2
    0, 0, 0,
    0, 0, 0,
    0, 0, 0,
    0, 0, 0,
    0, 0, 0,
    0, 0, 0,
    0, 0, 0,
    0, 0, 0,
    0, 0, 0,
    0, 0, 0,
    0, 0, 0,
    0, 0, 0,
    0, 0, 0,
    0, 0, 0,
    0, 0, 0
]);
d_nfa = array3d(1..2, 1..15, 1..3, [
  % k = 1
    {1}, {1, 2}, {1},
    {}, {3}, {},
    {}, {4}, {},
    {5}, {5}, {5},
    {6}, {6}, {6},
    {7}, {7}, {7},
    {8}, {8}, {8},
    {9}, {9}, {9},
    {10}, {10}, {10},
    {11}, {11}, {11},
    {12}, {12}, {12},
    {13}, {13}, {13},
    {14}, {14}, {14},
    {15}, {15}, {15},
    {}, {}, {},

  % k = 2
    {1}, {1}, {2},
    {2}, {2}, {3},
    {3}, {3}, {4},
    {4}, {4}, {5},
    {5}, {5}, {6},
    {6}, {6}, {7},
    {7}, {7}, {8},
    {8}, {8}, {9},
    {9}, {9}, {10},
    {10}, {10}, {11},
    {11}, {11}, {},
    {}, {}, {},
    {}, {}, {},
    {}, {}, {},
    {}, {}, {}
]);
